Version identifier: 22.1.0.0 | 2022-03-09 | 1a383f8ce
CPXPARAM_Read_DataCheck                          1
1 of 1 MIP starts provided solutions.
MIP start 'm1' defined initial solution with objective 45.0000.
Tried aggregator 3 times.
MIP Presolve eliminated 39274 rows and 4457 columns.
MIP Presolve modified 589 coefficients.
Aggregator did 35562 substitutions.
Reduced MIP has 5006 rows, 36841 columns, and 78731 nonzeros.
Reduced MIP has 36813 binaries, 28 generals, 0 SOSs, and 0 indicators.
Presolve time = 0.36 sec. (373.45 ticks)
Tried aggregator 1 time.
Detecting symmetries...
Reduced MIP has 5006 rows, 36841 columns, and 78731 nonzeros.
Reduced MIP has 36813 binaries, 28 generals, 0 SOSs, and 0 indicators.
Presolve time = 0.06 sec. (55.76 ticks)
Probing fixed 42 vars, tightened 0 bounds.
Probing changed sense of 4 constraints.
Probing time = 0.07 sec. (12.19 ticks)
Clique table members: 74939.
MIP emphasis: balance optimality and feasibility.
MIP search method: dynamic search.
Parallel mode: deterministic, using up to 8 threads.
Root relaxation solution time = 0.34 sec. (273.28 ticks)

        Nodes                                         Cuts/
   Node  Left     Objective  IInf  Best Integer    Best Bound    ItCnt     Gap

*     0+    0                           45.0000        0.0000           100.00%
      0     0       28.4009  3817       45.0000       28.4009     4432   36.89%
      0     0        cutoff             45.0000                   4448    0.00%
Elapsed time = 2.97 sec. (1738.98 ticks, tree = 0.01 MB, solutions = 1)

Zero-half cuts applied:  36
Gomory fractional cuts applied:  17

Root node processing (before b&c):
  Real time             =    2.97 sec. (1741.56 ticks)
Parallel b&c, 8 threads:
  Real time             =    0.00 sec. (0.00 ticks)
  Sync time (average)   =    0.00 sec.
  Wait time (average)   =    0.00 sec.
                          ------------
Total (root+branch&cut) =    2.97 sec. (1741.56 ticks)
